experiments/cake-graded/detailed-output/gen-inst-1.param
letting flour_gen be 3319
letting banana_gen be 9
letting sugar_gen be 784
letting butter_gen be 788
letting cocoa_gen be 661