experiments/cake-graded/detailed-output/gen-inst-1.solution.eprime-param
language ESSENCE' 1.0
letting banana_cakes be 3
letting bananas_capacity be 9
letting butter_capacity be 788
letting chocolate_cakes be 3
letting cocoa_capacity be 661
letting flour_capacity be 3319
letting sugar_capacity be 784
