experiments/cake-graded/detailed-output/gen-inst-1.solution
1 1 850 
1 2 1300 
1 3 1750 
1 4 2200 
0 5 2250 
3 3 2550 
1 1 850 
1 2 1300 
1 3 1750 
1 4 2200 
0 5 2250 
3 3 2550 
1 1 850 
1 2 1300 
1 3 1750 
1 4 2200 
0 5 2250 
3 3 2550 
1 1 850 
1 2 1300 
1 3 1750 
1 4 2200 
0 5 2250 
3 3 2550 
